
Gurobi 8.1.1 (win64, Python) logging started 10/16/19 16:20:25

Academic license - for non-commercial use only
Optimize a model with 3 rows, 3 columns and 7 nonzeros
Coefficient statistics:
  Matrix range     [1e+00, 2e+01]
  Objective range  [5e+02, 6e+02]
  Bounds range     [0e+00, 0e+00]
  RHS range        [8e+00, 2e+02]
Presolve removed 1 rows and 0 columns
Presolve time: 0.02s
Presolved: 2 rows, 3 columns, 6 nonzeros

Iteration    Objective       Primal Inf.    Dual Inf.      Time
       0    5.4000000e+03   1.011650e+01   0.000000e+00      0s
       2    5.1428571e+03   0.000000e+00   0.000000e+00      0s

Solved in 2 iterations and 0.04 seconds
Optimal objective  5.142857143e+03
Optimize a model with 14 rows, 19 columns and 53 nonzeros
Variable types: 0 continuous, 19 integer (3 binary)
Coefficient statistics:
  Matrix range     [1e+00, 1e+04]
  Objective range  [1e+00, 7e+01]
  Bounds range     [1e+00, 1e+00]
  RHS range        [1e+00, 8e+01]
Found heuristic solution: objective 743.0000000
Presolve removed 1 rows and 1 columns
Presolve time: 0.00s
Presolved: 13 rows, 18 columns, 52 nonzeros
Variable types: 0 continuous, 18 integer (2 binary)

Root relaxation: objective 6.230000e+02, 11 iterations, 0.00 seconds

    Nodes    |    Current Node    |     Objective Bounds      |     Work
 Expl Unexpl |  Obj  Depth IntInf | Incumbent    BestBd   Gap | It/Node Time

*    0     0               0     623.0000000  623.00000  0.00%     -    0s

Explored 0 nodes (11 simplex iterations) in 0.06 seconds
Thread count was 4 (of 4 available processors)

Solution count 2: 623 743 

Optimal solution found (tolerance 1.00e-04)
Best objective 6.230000000000e+02, best bound 6.230000000000e+02, gap 0.0000%

Gurobi 8.1.1 (win64, Python) logging started 10/17/19 13:06:48

Academic license - for non-commercial use only
Optimize a model with 4 rows, 2 columns and 7 nonzeros
Coefficient statistics:
  Matrix range     [1e+00, 6e+00]
  Objective range  [4e+00, 5e+00]
  Bounds range     [0e+00, 0e+00]
  RHS range        [1e+00, 2e+01]
Presolve removed 1 rows and 0 columns
Presolve time: 0.31s
Presolved: 3 rows, 2 columns, 6 nonzeros

Iteration    Objective       Primal Inf.    Dual Inf.      Time
       0    2.4000000e+01   1.200000e+01   0.000000e+00      0s
       3    2.1000000e+01   0.000000e+00   0.000000e+00      0s

Solved in 3 iterations and 0.50 seconds
Optimal objective  2.100000000e+01

Gurobi 8.1.1 (win64, Python) logging started 10/17/19 21:20:28

Academic license - for non-commercial use only
Optimize a model with 14 rows, 19 columns and 53 nonzeros
Variable types: 0 continuous, 19 integer (3 binary)
Coefficient statistics:
  Matrix range     [1e+00, 1e+04]
  Objective range  [1e+00, 7e+01]
  Bounds range     [1e+00, 1e+00]
  RHS range        [1e+00, 8e+01]
Found heuristic solution: objective 743.0000000
Presolve removed 1 rows and 1 columns
Presolve time: 0.03s
Presolved: 13 rows, 18 columns, 52 nonzeros
Variable types: 0 continuous, 18 integer (2 binary)

Root relaxation: objective 6.230000e+02, 11 iterations, 0.01 seconds

    Nodes    |    Current Node    |     Objective Bounds      |     Work
 Expl Unexpl |  Obj  Depth IntInf | Incumbent    BestBd   Gap | It/Node Time

*    0     0               0     623.0000000  623.00000  0.00%     -    0s

Explored 0 nodes (11 simplex iterations) in 0.19 seconds
Thread count was 4 (of 4 available processors)

Solution count 2: 623 743 

Optimal solution found (tolerance 1.00e-04)
Best objective 6.230000000000e+02, best bound 6.230000000000e+02, gap 0.0000%
Optimize a model with 14 rows, 15 columns and 42 nonzeros
Variable types: 3 continuous, 12 integer (12 binary)
Coefficient statistics:
  Matrix range     [1e+00, 4e+00]
  Objective range  [1e+03, 2e+03]
  Bounds range     [1e+00, 1e+00]
  RHS range        [1e+00, 3e+00]
Found heuristic solution: objective 7054.0000000
Presolve time: 0.00s
Presolved: 14 rows, 15 columns, 42 nonzeros
Variable types: 3 continuous, 12 integer (12 binary)

Root relaxation: objective 5.723500e+03, 9 iterations, 0.00 seconds

    Nodes    |    Current Node    |     Objective Bounds      |     Work
 Expl Unexpl |  Obj  Depth IntInf | Incumbent    BestBd   Gap | It/Node Time

     0     0 5723.50000    0    8 7054.00000 5723.50000  18.9%     -    0s
H    0     0                    6243.0000000 5723.50000  8.32%     -    0s
     0     0     cutoff    0      6243.00000 6243.00000  0.00%     -    0s

Cutting planes:
  Learned: 1
  MIR: 4

Explored 1 nodes (9 simplex iterations) in 0.29 seconds
Thread count was 4 (of 4 available processors)

Solution count 2: 6243 7054 

Optimal solution found (tolerance 1.00e-04)
Best objective 6.243000000000e+03, best bound 6.243000000000e+03, gap 0.0000%
Optimize a model with 14 rows, 15 columns and 42 nonzeros
Variable types: 3 continuous, 12 integer (12 binary)
Coefficient statistics:
  Matrix range     [1e+00, 4e+00]
  Objective range  [1e+03, 2e+03]
  Bounds range     [1e+00, 1e+00]
  RHS range        [1e+00, 3e+00]
Found heuristic solution: objective 7054.0000000
Presolve time: 0.00s
Presolved: 14 rows, 15 columns, 42 nonzeros
Variable types: 3 continuous, 12 integer (12 binary)

Root relaxation: objective 5.723500e+03, 9 iterations, 0.00 seconds

    Nodes    |    Current Node    |     Objective Bounds      |     Work
 Expl Unexpl |  Obj  Depth IntInf | Incumbent    BestBd   Gap | It/Node Time

     0     0 5723.50000    0    8 7054.00000 5723.50000  18.9%     -    0s
H    0     0                    6243.0000000 5723.50000  8.32%     -    0s
     0     0     cutoff    0      6243.00000 6243.00000  0.00%     -    0s

Cutting planes:
  Learned: 1
  MIR: 4

Explored 1 nodes (9 simplex iterations) in 0.38 seconds
Thread count was 4 (of 4 available processors)

Solution count 2: 6243 7054 

Optimal solution found (tolerance 1.00e-04)
Best objective 6.243000000000e+03, best bound 6.243000000000e+03, gap 0.0000%
Optimize a model with 14 rows, 15 columns and 42 nonzeros
Variable types: 3 continuous, 12 integer (12 binary)
Coefficient statistics:
  Matrix range     [1e+00, 4e+00]
  Objective range  [1e+03, 2e+03]
  Bounds range     [1e+00, 1e+00]
  RHS range        [1e+00, 3e+00]
Found heuristic solution: objective 7054.0000000
Presolve time: 0.00s
Presolved: 14 rows, 15 columns, 42 nonzeros
Variable types: 3 continuous, 12 integer (12 binary)

Root relaxation: objective 5.723500e+03, 9 iterations, 0.00 seconds

    Nodes    |    Current Node    |     Objective Bounds      |     Work
 Expl Unexpl |  Obj  Depth IntInf | Incumbent    BestBd   Gap | It/Node Time

     0     0 5723.50000    0    8 7054.00000 5723.50000  18.9%     -    0s
H    0     0                    6243.0000000 5723.50000  8.32%     -    0s
     0     0     cutoff    0      6243.00000 6243.00000  0.00%     -    0s

Cutting planes:
  Learned: 1
  MIR: 4

Explored 1 nodes (9 simplex iterations) in 0.27 seconds
Thread count was 4 (of 4 available processors)

Solution count 2: 6243 7054 

Optimal solution found (tolerance 1.00e-04)
Best objective 6.243000000000e+03, best bound 6.243000000000e+03, gap 0.0000%
Optimize a model with 14 rows, 15 columns and 42 nonzeros
Variable types: 3 continuous, 12 integer (12 binary)
Coefficient statistics:
  Matrix range     [1e+00, 4e+00]
  Objective range  [1e+03, 2e+03]
  Bounds range     [1e+00, 1e+00]
  RHS range        [1e+00, 3e+00]
Found heuristic solution: objective 8093.0000000
Presolve time: 0.00s
Presolved: 14 rows, 15 columns, 42 nonzeros
Variable types: 3 continuous, 12 integer (12 binary)

Root relaxation: objective 5.723500e+03, 8 iterations, 0.00 seconds

    Nodes    |    Current Node    |     Objective Bounds      |     Work
 Expl Unexpl |  Obj  Depth IntInf | Incumbent    BestBd   Gap | It/Node Time

     0     0 5723.50000    0    4 8093.00000 5723.50000  29.3%     -    0s
H    0     0                    6243.0000000 5723.50000  8.32%     -    0s
     0     0     cutoff    0      6243.00000 6243.00000  0.00%     -    0s

Cutting planes:
  Learned: 1
  MIR: 1

Explored 1 nodes (10 simplex iterations) in 0.37 seconds
Thread count was 4 (of 4 available processors)

Solution count 2: 6243 8093 

Optimal solution found (tolerance 1.00e-04)
Best objective 6.243000000000e+03, best bound 6.243000000000e+03, gap 0.0000%
Optimize a model with 14 rows, 15 columns and 42 nonzeros
Variable types: 3 continuous, 12 integer (12 binary)
Coefficient statistics:
  Matrix range     [1e+00, 4e+00]
  Objective range  [1e+03, 2e+03]
  Bounds range     [1e+00, 1e+00]
  RHS range        [1e+00, 3e+00]
Found heuristic solution: objective 8093.0000000
Presolve time: 0.00s
Presolved: 14 rows, 15 columns, 42 nonzeros
Variable types: 3 continuous, 12 integer (12 binary)

Root relaxation: objective 5.723500e+03, 8 iterations, 0.00 seconds

    Nodes    |    Current Node    |     Objective Bounds      |     Work
 Expl Unexpl |  Obj  Depth IntInf | Incumbent    BestBd   Gap | It/Node Time

     0     0 5723.50000    0    4 8093.00000 5723.50000  29.3%     -    0s
H    0     0                    6243.0000000 5723.50000  8.32%     -    0s
     0     0     cutoff    0      6243.00000 6243.00000  0.00%     -    0s

Cutting planes:
  Learned: 1
  MIR: 1

Explored 1 nodes (10 simplex iterations) in 0.39 seconds
Thread count was 4 (of 4 available processors)

Solution count 2: 6243 8093 

Optimal solution found (tolerance 1.00e-04)
Best objective 6.243000000000e+03, best bound 6.243000000000e+03, gap 0.0000%

Gurobi 8.1.1 (win64, Python) logging started 10/24/19 01:42:44

Academic license - for non-commercial use only
Optimize a model with 32 rows, 35 columns and 120 nonzeros
Variable types: 5 continuous, 30 integer (30 binary)
Coefficient statistics:
  Matrix range     [1e+00, 6e+00]
  Objective range  [6e+02, 1e+04]
  Bounds range     [1e+00, 1e+00]
  RHS range        [1e+00, 5e+00]
Found heuristic solution: objective 24860.000000
Presolve time: 0.00s
Presolved: 32 rows, 35 columns, 120 nonzeros
Variable types: 5 continuous, 30 integer (30 binary)

Root relaxation: objective 6.851667e+03, 15 iterations, 0.00 seconds

    Nodes    |    Current Node    |     Objective Bounds      |     Work
 Expl Unexpl |  Obj  Depth IntInf | Incumbent    BestBd   Gap | It/Node Time

     0     0 6851.66667    0    4 24860.0000 6851.66667  72.4%     -    0s
H    0     0                    8322.0000000 6851.66667  17.7%     -    0s
H    0     0                    7796.0000000 6851.66667  12.1%     -    0s
*    0     0               0    7041.0000000 7041.00000  0.00%     -    0s

Cutting planes:
  Learned: 1
  MIR: 2

Explored 1 nodes (18 simplex iterations) in 0.37 seconds
Thread count was 4 (of 4 available processors)

Solution count 4: 7041 7796 8322 24860 

Optimal solution found (tolerance 1.00e-04)
Best objective 7.041000000000e+03, best bound 7.041000000000e+03, gap 0.0000%
Optimize a model with 5 rows, 6 columns and 12 nonzeros
Variable types: 0 continuous, 6 integer (0 binary)
Coefficient statistics:
  Matrix range     [1e+00, 1e+00]
  Objective range  [3e+00, 7e+00]
  Bounds range     [0e+00, 0e+00]
  RHS range        [8e+00, 2e+01]
Presolve removed 5 rows and 6 columns
Presolve time: 0.00s
Presolve: All rows and columns removed

Explored 0 nodes (0 simplex iterations) in 0.16 seconds
Thread count was 1 (of 4 available processors)

Solution count 1: 153 

Optimal solution found (tolerance 1.00e-04)
Best objective 1.530000000000e+02, best bound 1.530000000000e+02, gap 0.0000%
Optimize a model with 5 rows, 6 columns and 12 nonzeros
Variable types: 0 continuous, 6 integer (0 binary)
Coefficient statistics:
  Matrix range     [1e+00, 1e+00]
  Objective range  [3e+00, 7e+00]
  Bounds range     [0e+00, 0e+00]
  RHS range        [8e+00, 2e+01]
Presolve removed 5 rows and 6 columns
Presolve time: 0.00s
Presolve: All rows and columns removed

Explored 0 nodes (0 simplex iterations) in 0.16 seconds
Thread count was 1 (of 4 available processors)

Solution count 1: 153 

Optimal solution found (tolerance 1.00e-04)
Best objective 1.530000000000e+02, best bound 1.530000000000e+02, gap 0.0000%
Optimize a model with 32 rows, 35 columns and 120 nonzeros
Variable types: 5 continuous, 30 integer (30 binary)
Coefficient statistics:
  Matrix range     [1e+00, 6e+00]
  Objective range  [6e+02, 1e+04]
  Bounds range     [1e+00, 1e+00]
  RHS range        [1e+00, 5e+00]
Found heuristic solution: objective 24860.000000
Presolve time: 0.00s
Presolved: 32 rows, 35 columns, 120 nonzeros
Variable types: 5 continuous, 30 integer (30 binary)

Root relaxation: objective 6.851667e+03, 15 iterations, 0.00 seconds

    Nodes    |    Current Node    |     Objective Bounds      |     Work
 Expl Unexpl |  Obj  Depth IntInf | Incumbent    BestBd   Gap | It/Node Time

     0     0 6851.66667    0    4 24860.0000 6851.66667  72.4%     -    0s
H    0     0                    8322.0000000 6851.66667  17.7%     -    0s
H    0     0                    7796.0000000 6851.66667  12.1%     -    0s
*    0     0               0    7041.0000000 7041.00000  0.00%     -    0s

Cutting planes:
  Learned: 1
  MIR: 2

Explored 1 nodes (18 simplex iterations) in 0.38 seconds
Thread count was 4 (of 4 available processors)

Solution count 4: 7041 7796 8322 24860 

Optimal solution found (tolerance 1.00e-04)
Best objective 7.041000000000e+03, best bound 7.041000000000e+03, gap 0.0000%
Optimize a model with 32 rows, 35 columns and 120 nonzeros
Variable types: 5 continuous, 30 integer (30 binary)
Coefficient statistics:
  Matrix range     [1e+00, 6e+00]
  Objective range  [6e+02, 1e+04]
  Bounds range     [1e+00, 1e+00]
  RHS range        [1e+00, 5e+00]
Found heuristic solution: objective 16479.000000
Presolve time: 0.00s
Presolved: 32 rows, 35 columns, 120 nonzeros
Variable types: 5 continuous, 30 integer (30 binary)

Root relaxation: objective 6.851667e+03, 15 iterations, 0.00 seconds

    Nodes    |    Current Node    |     Objective Bounds      |     Work
 Expl Unexpl |  Obj  Depth IntInf | Incumbent    BestBd   Gap | It/Node Time

     0     0 6851.66667    0    4 16479.0000 6851.66667  58.4%     -    0s
H    0     0                    11935.000000 6851.66667  42.6%     -    0s
H    0     0                    7796.0000000 6851.66667  12.1%     -    0s
*    0     0               0    7041.0000000 7041.00000  0.00%     -    0s

Cutting planes:
  Learned: 1
  MIR: 2

Explored 1 nodes (18 simplex iterations) in 0.42 seconds
Thread count was 4 (of 4 available processors)

Solution count 4: 7041 7796 11935 16479 

Optimal solution found (tolerance 1.00e-04)
Best objective 7.041000000000e+03, best bound 7.041000000000e+03, gap 0.0000%
Optimize a model with 32 rows, 35 columns and 120 nonzeros
Variable types: 5 continuous, 30 integer (30 binary)
Coefficient statistics:
  Matrix range     [1e+00, 6e+00]
  Objective range  [6e+02, 1e+04]
  Bounds range     [1e+00, 1e+00]
  RHS range        [1e+00, 5e+00]
Found heuristic solution: objective 24860.000000
Presolve time: 0.00s
Presolved: 32 rows, 35 columns, 120 nonzeros
Variable types: 5 continuous, 30 integer (30 binary)

Root relaxation: objective 6.851667e+03, 15 iterations, 0.00 seconds

    Nodes    |    Current Node    |     Objective Bounds      |     Work
 Expl Unexpl |  Obj  Depth IntInf | Incumbent    BestBd   Gap | It/Node Time

     0     0 6851.66667    0    4 24860.0000 6851.66667  72.4%     -    0s
H    0     0                    21876.000000 6851.66667  68.7%     -    0s
H    0     0                    7796.0000000 6851.66667  12.1%     -    0s
*    0     0               0    7041.0000000 7041.00000  0.00%     -    0s

Cutting planes:
  Learned: 1
  MIR: 2

Explored 1 nodes (18 simplex iterations) in 0.47 seconds
Thread count was 4 (of 4 available processors)

Solution count 4: 7041 7796 21876 24860 

Optimal solution found (tolerance 1.00e-04)
Best objective 7.041000000000e+03, best bound 7.041000000000e+03, gap 0.0000%
Optimize a model with 32 rows, 35 columns and 120 nonzeros
Variable types: 5 continuous, 30 integer (30 binary)
Coefficient statistics:
  Matrix range     [1e+00, 6e+00]
  Objective range  [6e+02, 1e+04]
  Bounds range     [1e+00, 1e+00]
  RHS range        [1e+00, 5e+00]
Found heuristic solution: objective 24860.000000
Presolve time: 0.00s
Presolved: 32 rows, 35 columns, 120 nonzeros
Variable types: 5 continuous, 30 integer (30 binary)

Root relaxation: objective 6.851667e+03, 15 iterations, 0.00 seconds

    Nodes    |    Current Node    |     Objective Bounds      |     Work
 Expl Unexpl |  Obj  Depth IntInf | Incumbent    BestBd   Gap | It/Node Time

     0     0 6851.66667    0    4 24860.0000 6851.66667  72.4%     -    0s
H    0     0                    8322.0000000 6851.66667  17.7%     -    0s
H    0     0                    7796.0000000 6851.66667  12.1%     -    0s
*    0     0               0    7041.0000000 7041.00000  0.00%     -    0s

Cutting planes:
  Learned: 1
  MIR: 2

Explored 1 nodes (18 simplex iterations) in 0.44 seconds
Thread count was 4 (of 4 available processors)

Solution count 4: 7041 7796 8322 24860 

Optimal solution found (tolerance 1.00e-04)
Best objective 7.041000000000e+03, best bound 7.041000000000e+03, gap 0.0000%
Optimize a model with 32 rows, 35 columns and 120 nonzeros
Variable types: 5 continuous, 30 integer (30 binary)
Coefficient statistics:
  Matrix range     [1e+00, 6e+00]
  Objective range  [6e+02, 1e+04]
  Bounds range     [1e+00, 1e+00]
  RHS range        [1e+00, 5e+00]
Found heuristic solution: objective 24860.000000
Presolve time: 0.00s
Presolved: 32 rows, 35 columns, 120 nonzeros
Variable types: 5 continuous, 30 integer (30 binary)

Root relaxation: objective 6.851667e+03, 15 iterations, 0.00 seconds

    Nodes    |    Current Node    |     Objective Bounds      |     Work
 Expl Unexpl |  Obj  Depth IntInf | Incumbent    BestBd   Gap | It/Node Time

     0     0 6851.66667    0    4 24860.0000 6851.66667  72.4%     -    0s
H    0     0                    21876.000000 6851.66667  68.7%     -    0s
H    0     0                    7796.0000000 6851.66667  12.1%     -    0s
*    0     0               0    7041.0000000 7041.00000  0.00%     -    0s

Cutting planes:
  Learned: 1
  MIR: 2

Explored 1 nodes (18 simplex iterations) in 0.54 seconds
Thread count was 4 (of 4 available processors)

Solution count 4: 7041 7796 21876 24860 

Optimal solution found (tolerance 1.00e-04)
Best objective 7.041000000000e+03, best bound 7.041000000000e+03, gap 0.0000%
Optimize a model with 32 rows, 35 columns and 120 nonzeros
Variable types: 5 continuous, 30 integer (30 binary)
Coefficient statistics:
  Matrix range     [1e+00, 6e+00]
  Objective range  [6e+02, 1e+04]
  Bounds range     [1e+00, 1e+00]
  RHS range        [1e+00, 5e+00]
Found heuristic solution: objective 24860.000000
Presolve time: 0.00s
Presolved: 32 rows, 35 columns, 120 nonzeros
Variable types: 5 continuous, 30 integer (30 binary)

Root relaxation: objective 6.851667e+03, 15 iterations, 0.00 seconds

    Nodes    |    Current Node    |     Objective Bounds      |     Work
 Expl Unexpl |  Obj  Depth IntInf | Incumbent    BestBd   Gap | It/Node Time

     0     0 6851.66667    0    4 24860.0000 6851.66667  72.4%     -    0s
H    0     0                    8322.0000000 6851.66667  17.7%     -    0s
H    0     0                    7796.0000000 6851.66667  12.1%     -    0s
*    0     0               0    7041.0000000 7041.00000  0.00%     -    0s

Cutting planes:
  Learned: 1
  MIR: 2

Explored 1 nodes (18 simplex iterations) in 0.52 seconds
Thread count was 4 (of 4 available processors)

Solution count 4: 7041 7796 8322 24860 

Optimal solution found (tolerance 1.00e-04)
Best objective 7.041000000000e+03, best bound 7.041000000000e+03, gap 0.0000%
Optimize a model with 32 rows, 35 columns and 120 nonzeros
Variable types: 5 continuous, 30 integer (30 binary)
Coefficient statistics:
  Matrix range     [1e+00, 6e+00]
  Objective range  [6e+02, 1e+04]
  Bounds range     [1e+00, 1e+00]
  RHS range        [1e+00, 5e+00]
Found heuristic solution: objective 24860.000000
Presolve time: 0.00s
Presolved: 32 rows, 35 columns, 120 nonzeros
Variable types: 5 continuous, 30 integer (30 binary)

Root relaxation: objective 6.851667e+03, 15 iterations, 0.00 seconds

    Nodes    |    Current Node    |     Objective Bounds      |     Work
 Expl Unexpl |  Obj  Depth IntInf | Incumbent    BestBd   Gap | It/Node Time

     0     0 6851.66667    0    4 24860.0000 6851.66667  72.4%     -    0s
H    0     0                    8322.0000000 6851.66667  17.7%     -    0s
H    0     0                    7796.0000000 6851.66667  12.1%     -    0s
*    0     0               0    7041.0000000 7041.00000  0.00%     -    0s

Cutting planes:
  Learned: 1
  MIR: 2

Explored 1 nodes (18 simplex iterations) in 0.39 seconds
Thread count was 4 (of 4 available processors)

Solution count 4: 7041 7796 8322 24860 

Optimal solution found (tolerance 1.00e-04)
Best objective 7.041000000000e+03, best bound 7.041000000000e+03, gap 0.0000%

Gurobi 8.1.1 (win64, Python) logging started 10/24/19 15:27:54

Academic license - for non-commercial use only
Optimize a model with 32 rows, 35 columns and 120 nonzeros
Variable types: 5 continuous, 30 integer (30 binary)
Coefficient statistics:
  Matrix range     [1e+00, 6e+00]
  Objective range  [6e+02, 1e+04]
  Bounds range     [1e+00, 1e+00]
  RHS range        [1e+00, 5e+00]
Found heuristic solution: objective 24860.000000
Presolve time: 0.00s
Presolved: 32 rows, 35 columns, 120 nonzeros
Variable types: 5 continuous, 30 integer (30 binary)

Root relaxation: objective 6.851667e+03, 15 iterations, 0.00 seconds

    Nodes    |    Current Node    |     Objective Bounds      |     Work
 Expl Unexpl |  Obj  Depth IntInf | Incumbent    BestBd   Gap | It/Node Time

     0     0 6851.66667    0    4 24860.0000 6851.66667  72.4%     -    0s
H    0     0                    8322.0000000 6851.66667  17.7%     -    0s
H    0     0                    7796.0000000 6851.66667  12.1%     -    0s
*    0     0               0    7041.0000000 7041.00000  0.00%     -    0s

Cutting planes:
  Learned: 1
  MIR: 2

Explored 1 nodes (18 simplex iterations) in 0.06 seconds
Thread count was 4 (of 4 available processors)

Solution count 4: 7041 7796 8322 24860 

Optimal solution found (tolerance 1.00e-04)
Best objective 7.041000000000e+03, best bound 7.041000000000e+03, gap 0.0000%
Optimize a model with 37 rows, 41 columns and 125 nonzeros
Variable types: 5 continuous, 36 integer (36 binary)
Coefficient statistics:
  Matrix range     [1e+00, 6e+00]
  Objective range  [6e+02, 1e+04]
  Bounds range     [1e+00, 1e+00]
  RHS range        [1e+00, 5e+00]
Found heuristic solution: objective 12616.000000
Presolve removed 5 rows and 6 columns
Presolve time: 0.00s
Presolved: 32 rows, 35 columns, 120 nonzeros
Variable types: 5 continuous, 30 integer (30 binary)

Root relaxation: objective 6.923000e+03, 17 iterations, 0.00 seconds

    Nodes    |    Current Node    |     Objective Bounds      |     Work
 Expl Unexpl |  Obj  Depth IntInf | Incumbent    BestBd   Gap | It/Node Time

     0     0 6923.00000    0    8 12616.0000 6923.00000  45.1%     -    0s
H    0     0                    8444.0000000 6923.00000  18.0%     -    0s
H    0     0                    7940.0000000 6923.00000  12.8%     -    0s
     0     0 7261.00000    0    8 7940.00000 7261.00000  8.55%     -    0s
H    0     0                    7796.0000000 7261.00000  6.86%     -    0s
H    0     0                    7405.0000000 7261.00000  1.94%     -    0s
     0     0 7261.00000    0    8 7405.00000 7261.00000  1.94%     -    0s
H    0     0                    7264.0000000 7261.00000  0.04%     -    0s
     0     0 7261.00000    0    8 7264.00000 7261.00000  0.04%     -    0s
     0     0 infeasible    0      7264.00000 7264.00000  0.00%     -    0s

Cutting planes:
  Learned: 2
  MIR: 2

Explored 1 nodes (37 simplex iterations) in 0.50 seconds
Thread count was 4 (of 4 available processors)

Solution count 6: 7264 7405 7796 ... 12616

Optimal solution found (tolerance 1.00e-04)
Best objective 7.264000000000e+03, best bound 7.264000000000e+03, gap 0.0000%
Optimize a model with 37 rows, 41 columns and 125 nonzeros
Variable types: 5 continuous, 36 integer (36 binary)
Coefficient statistics:
  Matrix range     [1e+00, 6e+00]
  Objective range  [6e+02, 1e+04]
  Bounds range     [1e+00, 1e+00]
  RHS range        [1e+00, 5e+00]
Found heuristic solution: objective 12616.000000
Presolve removed 5 rows and 6 columns
Presolve time: 0.00s
Presolved: 32 rows, 35 columns, 120 nonzeros
Variable types: 5 continuous, 30 integer (30 binary)

Root relaxation: objective 6.923000e+03, 17 iterations, 0.00 seconds

    Nodes    |    Current Node    |     Objective Bounds      |     Work
 Expl Unexpl |  Obj  Depth IntInf | Incumbent    BestBd   Gap | It/Node Time

     0     0 6923.00000    0    8 12616.0000 6923.00000  45.1%     -    0s
H    0     0                    8444.0000000 6923.00000  18.0%     -    0s
H    0     0                    7940.0000000 6923.00000  12.8%     -    0s
     0     0 7261.00000    0    8 7940.00000 7261.00000  8.55%     -    0s
H    0     0                    7796.0000000 7261.00000  6.86%     -    0s
H    0     0                    7405.0000000 7261.00000  1.94%     -    0s
     0     0 7261.00000    0    8 7405.00000 7261.00000  1.94%     -    0s
H    0     0                    7264.0000000 7261.00000  0.04%     -    0s
     0     0 7261.00000    0    8 7264.00000 7261.00000  0.04%     -    0s
     0     0 infeasible    0      7264.00000 7264.00000  0.00%     -    0s

Cutting planes:
  Learned: 2
  MIR: 2

Explored 1 nodes (37 simplex iterations) in 0.50 seconds
Thread count was 4 (of 4 available processors)

Solution count 6: 7264 7405 7796 ... 12616

Optimal solution found (tolerance 1.00e-04)
Best objective 7.264000000000e+03, best bound 7.264000000000e+03, gap 0.0000%
Optimize a model with 37 rows, 41 columns and 125 nonzeros
Variable types: 5 continuous, 36 integer (36 binary)
Coefficient statistics:
  Matrix range     [1e+00, 6e+00]
  Objective range  [6e+02, 1e+04]
  Bounds range     [1e+00, 1e+00]
  RHS range        [1e+00, 5e+00]
Found heuristic solution: objective 12616.000000
Presolve removed 5 rows and 6 columns
Presolve time: 0.00s
Presolved: 32 rows, 35 columns, 120 nonzeros
Variable types: 5 continuous, 30 integer (30 binary)

Root relaxation: objective 6.923000e+03, 17 iterations, 0.00 seconds

    Nodes    |    Current Node    |     Objective Bounds      |     Work
 Expl Unexpl |  Obj  Depth IntInf | Incumbent    BestBd   Gap | It/Node Time

     0     0 6923.00000    0    8 12616.0000 6923.00000  45.1%     -    0s
H    0     0                    8444.0000000 6923.00000  18.0%     -    0s
H    0     0                    7940.0000000 6923.00000  12.8%     -    0s
     0     0 7261.00000    0    8 7940.00000 7261.00000  8.55%     -    0s
H    0     0                    7796.0000000 7261.00000  6.86%     -    0s
H    0     0                    7405.0000000 7261.00000  1.94%     -    0s
     0     0 7261.00000    0    8 7405.00000 7261.00000  1.94%     -    0s
H    0     0                    7264.0000000 7261.00000  0.04%     -    0s
     0     0 7261.00000    0    8 7264.00000 7261.00000  0.04%     -    0s
     0     0 infeasible    0      7264.00000 7264.00000  0.00%     -    0s

Cutting planes:
  Learned: 2
  MIR: 2

Explored 1 nodes (37 simplex iterations) in 0.34 seconds
Thread count was 4 (of 4 available processors)

Solution count 6: 7264 7405 7796 ... 12616

Optimal solution found (tolerance 1.00e-04)
Best objective 7.264000000000e+03, best bound 7.264000000000e+03, gap 0.0000%
Optimize a model with 37 rows, 41 columns and 125 nonzeros
Variable types: 5 continuous, 36 integer (36 binary)
Coefficient statistics:
  Matrix range     [1e+00, 6e+00]
  Objective range  [6e+02, 1e+04]
  Bounds range     [1e+00, 1e+00]
  RHS range        [1e+00, 5e+00]
Found heuristic solution: objective 12616.000000
Presolve removed 5 rows and 6 columns
Presolve time: 0.00s
Presolved: 32 rows, 35 columns, 120 nonzeros
Variable types: 5 continuous, 30 integer (30 binary)

Root relaxation: objective 6.923000e+03, 17 iterations, 0.00 seconds

    Nodes    |    Current Node    |     Objective Bounds      |     Work
 Expl Unexpl |  Obj  Depth IntInf | Incumbent    BestBd   Gap | It/Node Time

     0     0 6923.00000    0    8 12616.0000 6923.00000  45.1%     -    0s
H    0     0                    8444.0000000 6923.00000  18.0%     -    0s
H    0     0                    7940.0000000 6923.00000  12.8%     -    0s
     0     0 7261.00000    0    8 7940.00000 7261.00000  8.55%     -    0s
H    0     0                    7796.0000000 7261.00000  6.86%     -    0s
H    0     0                    7405.0000000 7261.00000  1.94%     -    0s
     0     0 7261.00000    0    8 7405.00000 7261.00000  1.94%     -    0s
H    0     0                    7264.0000000 7261.00000  0.04%     -    0s
     0     0 7261.00000    0    8 7264.00000 7261.00000  0.04%     -    0s
     0     0 infeasible    0      7264.00000 7264.00000  0.00%     -    0s

Cutting planes:
  Learned: 2
  MIR: 2

Explored 1 nodes (37 simplex iterations) in 0.47 seconds
Thread count was 4 (of 4 available processors)

Solution count 6: 7264 7405 7796 ... 12616

Optimal solution found (tolerance 1.00e-04)
Best objective 7.264000000000e+03, best bound 7.264000000000e+03, gap 0.0000%
Optimize a model with 32 rows, 35 columns and 120 nonzeros
Variable types: 5 continuous, 30 integer (30 binary)
Coefficient statistics:
  Matrix range     [1e+00, 6e+00]
  Objective range  [6e+02, 1e+04]
  Bounds range     [1e+00, 1e+00]
  RHS range        [1e+00, 5e+00]
Found heuristic solution: objective 24860.000000
Presolve time: 0.00s
Presolved: 32 rows, 35 columns, 120 nonzeros
Variable types: 5 continuous, 30 integer (30 binary)

Root relaxation: objective 6.851667e+03, 15 iterations, 0.00 seconds

    Nodes    |    Current Node    |     Objective Bounds      |     Work
 Expl Unexpl |  Obj  Depth IntInf | Incumbent    BestBd   Gap | It/Node Time

     0     0 6851.66667    0    4 24860.0000 6851.66667  72.4%     -    0s
H    0     0                    8322.0000000 6851.66667  17.7%     -    0s
H    0     0                    7796.0000000 6851.66667  12.1%     -    0s
*    0     0               0    7041.0000000 7041.00000  0.00%     -    0s

Cutting planes:
  Learned: 1
  MIR: 2

Explored 1 nodes (18 simplex iterations) in 0.39 seconds
Thread count was 4 (of 4 available processors)

Solution count 4: 7041 7796 8322 24860 

Optimal solution found (tolerance 1.00e-04)
Best objective 7.041000000000e+03, best bound 7.041000000000e+03, gap 0.0000%
Optimize a model with 37 rows, 41 columns and 125 nonzeros
Variable types: 5 continuous, 36 integer (36 binary)
Coefficient statistics:
  Matrix range     [1e+00, 6e+00]
  Objective range  [6e+02, 1e+04]
  Bounds range     [1e+00, 1e+00]
  RHS range        [1e+00, 5e+00]
Found heuristic solution: objective 12616.000000
Presolve removed 5 rows and 6 columns
Presolve time: 0.00s
Presolved: 32 rows, 35 columns, 120 nonzeros
Variable types: 5 continuous, 30 integer (30 binary)

Root relaxation: objective 6.923000e+03, 17 iterations, 0.00 seconds

    Nodes    |    Current Node    |     Objective Bounds      |     Work
 Expl Unexpl |  Obj  Depth IntInf | Incumbent    BestBd   Gap | It/Node Time

     0     0 6923.00000    0    8 12616.0000 6923.00000  45.1%     -    0s
H    0     0                    8444.0000000 6923.00000  18.0%     -    0s
H    0     0                    7940.0000000 6923.00000  12.8%     -    0s
     0     0 7261.00000    0    8 7940.00000 7261.00000  8.55%     -    0s
H    0     0                    7796.0000000 7261.00000  6.86%     -    0s
H    0     0                    7405.0000000 7261.00000  1.94%     -    0s
     0     0 7261.00000    0    8 7405.00000 7261.00000  1.94%     -    0s
H    0     0                    7264.0000000 7261.00000  0.04%     -    0s
     0     0 7261.00000    0    8 7264.00000 7261.00000  0.04%     -    0s
     0     0 infeasible    0      7264.00000 7264.00000  0.00%     -    0s

Cutting planes:
  Learned: 2
  MIR: 2

Explored 1 nodes (37 simplex iterations) in 0.52 seconds
Thread count was 4 (of 4 available processors)

Solution count 6: 7264 7405 7796 ... 12616

Optimal solution found (tolerance 1.00e-04)
Best objective 7.264000000000e+03, best bound 7.264000000000e+03, gap 0.0000%
Optimize a model with 5 rows, 6 columns and 12 nonzeros
Variable types: 0 continuous, 6 integer (0 binary)
Coefficient statistics:
  Matrix range     [1e+00, 1e+00]
  Objective range  [3e+00, 7e+00]
  Bounds range     [0e+00, 0e+00]
  RHS range        [8e+00, 2e+01]
Presolve removed 5 rows and 6 columns
Presolve time: 0.00s
Presolve: All rows and columns removed

Explored 0 nodes (0 simplex iterations) in 0.17 seconds
Thread count was 1 (of 4 available processors)

Solution count 1: 153 

Optimal solution found (tolerance 1.00e-04)
Best objective 1.530000000000e+02, best bound 1.530000000000e+02, gap 0.0000%
Optimize a model with 5 rows, 6 columns and 12 nonzeros
Variable types: 0 continuous, 6 integer (0 binary)
Coefficient statistics:
  Matrix range     [1e+00, 1e+00]
  Objective range  [3e+00, 7e+00]
  Bounds range     [0e+00, 0e+00]
  RHS range        [8e+00, 2e+01]
Presolve removed 5 rows and 6 columns
Presolve time: 0.00s
Presolve: All rows and columns removed

Explored 0 nodes (0 simplex iterations) in 0.16 seconds
Thread count was 1 (of 4 available processors)

Solution count 1: 153 

Optimal solution found (tolerance 1.00e-04)
Best objective 1.530000000000e+02, best bound 1.530000000000e+02, gap 0.0000%
